==> MAXTIME              = 3600
==> OUTPUTLOG            = 1
==> TREECOVERCUTS        = 0
FICO Xpress v8.5.9, solve started 23:53:43, Jun 8, 2019
Maximizing MILP Seating model
Original problem has:
       230 rows          300 cols         7440 elements       300 globals
Presolved problem has:
       103 rows          204 cols         2431 elements       198 globals
LP relaxation tightened
Will try to keep branch and bound tree memory usage below 7.2GB
 *** Heuristic solution found:    22.000000      Time: 0 ***
Starting concurrent solve with dual

 Concurrent-Solve,   0s
            Dual        
    objective   dual inf
 D  102.00000   .0000000
------- optimal --------
Concurrent statistics:
      Dual: 34 simplex iterations, 0.00s
Optimal solution found
 
   Its         Obj Value      S   Ninf  Nneg   Sum Dual Inf  Time
    34        102.000000      D      0     0        .000000     0
Dual solved problem
  34 simplex iterations in 0s

Final objective                         : 1.020000000000000e+02
  Max primal violation      (abs / rel) : 1.110e-16 / 9.869e-17
  Max dual violation        (abs / rel) :       0.0 /       0.0
  Max complementarity viol. (abs / rel) :       0.0 /       0.0
All values within tolerances

Starting root cutting & heuristics
 
 Its Type    BestSoln    BestBound   Sols    Add    Del     Gap     GInf   Time
   1  K     22.000000   102.000000      1     99      0   78.43%      29      0
   2  K     22.000000   102.000000      1    111     81   78.43%      43      0
   3  K     22.000000   102.000000      1     92    101   78.43%      48      0
b           28.000000   102.000000      2                 72.55%       0      0
   4  K     28.000000   102.000000      2     87     94   72.55%      35      0
   5  K     28.000000   102.000000      2    100     83   72.55%      49      0
   6  K     28.000000   102.000000      2     93     97   72.55%      47      0
   7  K     28.000000   102.000000      2     89     88   72.55%      58      0
b           35.000000   102.000000      3                 65.69%       0      0
   8  K     35.000000   102.000000      3     81     91   65.69%      37      0
   9  K     35.000000   102.000000      3     95     87   65.69%      48      0
  10  K     35.000000   102.000000      3     97     89   65.69%      58      0
  11  K     35.000000   102.000000      3     83     86   65.69%      67      0
  12  K     35.000000   102.000000      3     93     82   65.69%      72      0
  13  K     35.000000   102.000000      3     87     85   65.69%      76      0
  14  K     35.000000   102.000000      3      2     83   65.69%      39      0
  15  K     35.000000   102.000000      3      1      7   65.69%      39      0
  16  K     35.000000   102.000000      3      1     13   65.69%      39      0
  17  K     35.000000   102.000000      3     96      8   65.69%      58      0
  18  K     35.000000   102.000000      3      2     91   65.69%      39      0
b           47.000000   102.000000      4                 53.92%       0      0
  19  K     47.000000   102.000000      4     93     14   53.92%      52      0
  20  K     47.000000   102.000000      4     99    150   53.92%      59      0
  21  G     47.000000   102.000000      4     39     31   53.92%      41      0
  22  G     47.000000   102.000000      4     70    110   53.92%      55      0
Heuristic search started
Heuristic search stopped
 
Cuts in the matrix         : 39
Cut elements in the matrix : 1106
 
Starting tree search.
Deterministic mode with up to 4 running threads and up to 8 tasks.
 
    Node     BestSoln    BestBound   Sols Active  Depth     Gap     GInf   Time
       1    47.000000   102.000000      4      2      1   53.92%      45      0
       2    47.000000   102.000000      4      2      2   53.92%      40      0
       3    47.000000   102.000000      4      2      3   53.92%      29      0
       4    47.000000   102.000000      4      2      2   53.92%      35      0
       5    47.000000   102.000000      4      2      4   53.92%      42      0
       6    47.000000   102.000000      4      5      3   53.92%      34      0
       7    47.000000   102.000000      4      5      5   53.92%      41      0
       8    47.000000   102.000000      4      5      6   53.92%      36      0
       9    47.000000   102.000000      4      5      4   53.92%      26      0
      10    47.000000   102.000000      4      8      4   53.92%      26      0
      32    47.000000   102.000000      4     17     19   53.92%      33      0
      50    47.000000   102.000000      4     17     19   53.92%      17      0
      65    47.000000   102.000000      4     17     27   53.92%      18      0
      91    47.000000   102.000000      4     32     22   53.92%      21      0
a    123    49.000000   102.000000      5     54     29   51.96%       0      0
     124    49.000000   102.000000      5     54     29   51.96%      12      0
     228    49.000000   102.000000      5     54     28   51.96%      21      0
     347    49.000000   102.000000      5     54     25   51.96%      29      0
     455    49.000000   102.000000      5     87     28   51.96%      27      1
B&B tree size: 0.5MB total
 
    Node     BestSoln    BestBound   Sols Active  Depth     Gap     GInf   Time
     570    49.000000   102.000000      5    131     21   51.96%      26      1
     673    49.000000   102.000000      5    131     22   51.96%      18      1
     789    49.000000   102.000000      5    131     28   51.96%       6      1
     893    49.000000   102.000000      5    193     22   51.96%      23      1
    1002    49.000000   102.000000      5    193     31   51.96%      14      1
    1113    49.000000   102.000000      5    252     28   51.96%      25      1
    1226    49.000000   102.000000      5    252     23   51.96%      31      1
    1338    49.000000   102.000000      5    252     23   51.96%      28      1
    1447    49.000000   101.929293      5    356     18   51.93%      37      1
    1549    49.000000   101.929293      5    394     23   51.93%       9      1
    1659    49.000000   101.929293      5    455     32   51.93%       6      1
    1763    49.000000   101.929293      5    455     33   51.93%       6      1
    1904    49.000000   101.929293      5    455     23   51.93%      21      1
    2021    49.000000   101.929293      5    540     27   51.93%      18      1
    2157    49.000000   101.929293      5    540     31   51.93%      16      1
    2284    49.000000   101.929293      5    540     22   51.93%      17      1
    2390    49.000000   101.929293      5    540     27   51.93%      27      1
    2511    49.000000   101.929293      5    540     25   51.93%       3      1
a   2523    53.000000   101.929293      6    540     29   48.00%       0      1
    2616    53.000000   101.929293      6    540     19   48.00%      39      1
B&B tree size: 1.4MB total
 
    Node     BestSoln    BestBound   Sols Active  Depth     Gap     GInf   Time
    2741    53.000000   101.929293      6    540     31   48.00%      13      1
    2870    53.000000   101.929293      6    540     29   48.00%       6      1
    2975    53.000000   101.929293      6    540     26   48.00%      18      1
    3103    53.000000   101.929293      6    540     24   48.00%      18      1
    3210    53.000000   101.929293      6    659     27   48.00%      22      1
    3335    53.000000   101.929293      6    659     20   48.00%      17      1
    3453    53.000000   101.929293      6    659     18   48.00%      10      1
    3580    53.000000   101.929293      6    659     27   48.00%      12      1
    3681    53.000000   101.929293      6    659     31   48.00%       5      1
a   3712    55.000000   101.929293      7    659     31   46.04%       0      1
    3810    55.000000   101.929293      7    659     23   46.04%      23      1
    3924    55.000000   101.929293      7    659     25   46.04%      11      1
    4052    55.000000   101.929293      7    659     17   46.04%      30      1
    4161    55.000000   101.929293      7    807     20   46.04%      26      1
    4272    55.000000   101.929293      7    807     27   46.04%       9      1
    4382    55.000000   101.929293      7    807     17   46.04%      15      1
    4483    55.000000   101.929293      7    807     13   46.04%      30      1
    4597    55.000000   101.929293      7    807     19   46.04%      29      1
    4697    55.000000   101.929293      7    807     17   46.04%      16      1
    4812    55.000000   101.929293      7    995     21   46.04%      29      2
B&B tree size: 2.8MB total
 
    Node     BestSoln    BestBound   Sols Active  Depth     Gap     GInf   Time
    4938    55.000000   101.929293      7   1139     20   46.04%      20      2
    5052    55.000000   101.929293      7   1276     15   46.04%      13      2
    5173    55.000000   101.929293      7   1276     24   46.04%      19      2
    5277    55.000000   100.111111      7   1483      1   45.06%       1      2
    5402    55.000000   100.111111      7   1483     25   45.06%      15      2
    5513    55.000000   100.111111      7   1483     28   45.06%      10      2
    5623    55.000000    98.106352      7   1729     21   43.94%      29      2
    5748    55.000000    98.106352      7   1729     24   43.94%      11      2
a   5752    58.000000    98.106352      8   1729     26   40.88%       0      2
    5849    58.000000    98.106352      8   1729     19   40.88%      16      2
    5960    58.000000    98.106352      8   1729     13   40.88%      30      2
    6082    58.000000    98.106352      8   1729     33   40.88%      25      2
    6208    58.000000    98.106352      8   1814      1   40.88%       1      2
    6314    58.000000    98.106352      8   1814     24   40.88%      36      2
    6426    58.000000    98.106352      8   1814     29   40.88%      25      2
    6546    58.000000    98.106352      8   1941     19   40.88%      14      2
    6659    58.000000    98.106352      8   1941     28   40.88%      11      2
    6768    58.000000    98.106352      8   1941     18   40.88%      19      2
    6881    58.000000    98.106352      8   1941     23   40.88%      25      2
    6981    58.000000    98.106352      8   1941     20   40.88%      18      2
B&B tree size: 3.4MB total
 
    Node     BestSoln    BestBound   Sols Active  Depth     Gap     GInf   Time
    7109    58.000000    98.106352      8   1941     24   40.88%      32      2
    7217    58.000000    98.106352      8   1941     27   40.88%      17      2
    7320    58.000000    98.106352      8   1941     20   40.88%      27      2
    7437    58.000000    95.831790      8   2108     21   39.48%      25      2
    7561    58.000000    95.831790      8   2211     23   39.48%      13      2
    7694    58.000000    95.831790      8   2211     19   39.48%      18      2
    7796    58.000000    95.831790      8   2211     20   39.48%      32      2
    7903    58.000000    95.831790      8   2336     21   39.48%      26      2
E   7951    59.000000    95.831790      9   2336     24   38.43%       0      2
    8015    59.000000    95.831790      9   2336     23   38.43%      22      2
    8127    59.000000    95.831790      9   2336     34   38.43%       5      2
    8244    59.000000    95.831790      9   2336     18   38.43%      21      2
    8344    59.000000    95.831790      9   2336     20   38.43%      19      2
    8484    59.000000    93.584795      9   2394      1   36.96%       1      2
    8592    59.000000    93.584795      9   2394     26   36.96%      20      2
    8707    59.000000    92.670521      9   2663     14   36.33%      21      2
    8818    59.000000    92.670521      9   2663     22   36.33%      18      2
    8930    59.000000    92.670521      9   2663     27   36.33%      23      2
    9033    59.000000    92.670521      9   2663     18   36.33%      16      2
    9142    59.000000    92.670521      9   2663     21   36.33%      24      2
B&B tree size: 4.4MB total
 
    Node     BestSoln    BestBound   Sols Active  Depth     Gap     GInf   Time
    9245    59.000000    92.670521      9   2663     19   36.33%      15      2
    9349    59.000000    92.670521      9   2744     23   36.33%       9      3
    9455    59.000000    92.670521      9   2744     18   36.33%      24      3
    9567    59.000000    92.670521      9   2866     27   36.33%      27      3
    9691    59.000000    92.670521      9   2866     22   36.33%      16      3
    9817    59.000000    92.670521      9   2866     25   36.33%      24      3
    9936    59.000000    90.688889      9   2954     29   34.94%      32      3
   10042    59.000000    90.688889      9   3004     17   34.94%      25      3
   11068    59.000000    89.555556      9   3277     25   34.12%      27      3
   12085    59.000000    89.008092      9   3386     24   33.71%      18      3
   13112    59.000000    87.656863      9   3709     26   32.69%      32      3
   14136    59.000000    87.208307      9   3903     29   32.35%      20      4
   15155    59.000000    86.000000      9   4104     25   31.40%      19      4
a  15720    60.000000    85.838384     10   4211     27   30.10%       0      4
   16233    60.000000    85.838384     10   4140      1   30.10%       1      4
   17244    60.000000    85.000000     10   4403     25   29.41%      27      4
   18257    60.000000    85.000000     10   4546     27   29.41%      15      4
   19285    60.000000    85.000000     10   4767     22   29.41%      25      5
   20287    60.000000    84.324110     10   4908     23   28.85%      39      5
   21289    60.000000    82.888889     10   5002     21   27.61%      29      5
B&B tree size: 7.9MB total
 
    Node     BestSoln    BestBound   Sols Active  Depth     Gap     GInf   Time
   22289    60.000000    82.494949     10   5116     23   27.27%      23      5
   23303    60.000000    82.195455     10   5201     27   27.00%      11      6
   24306    60.000000    82.020468     10   5279     18   26.85%      31      6
   25326    60.000000    82.000000     10   5509     15   26.83%      18      6
   26347    60.000000    82.000000     10   5588     16   26.83%      26      6
   27350    60.000000    81.939010     10   5753     19   26.77%      26      6
   28364    60.000000    81.939010     10   5764     24   26.77%      18      7
   29381    60.000000    81.000000     10   5912     23   25.93%      20      7
   30398    60.000000    81.000000     10   5968     25   25.93%      26      7
   31412    60.000000    80.142222     10   6009     26   25.13%      16      7
   32415    60.000000    80.000000     10   6031     26   25.00%      24      7
   33436    60.000000    79.647661     10   6183     24   24.67%      17      8
   34449    60.000000    79.165692     10   6201     22   24.21%      14      8
   35449    60.000000    78.879630     10   6276      1   23.93%       1      8
   36473    60.000000    78.666667     10   6290     22   23.73%      33      8
   37488    60.000000    78.269949     10   6285     24   23.34%      26      8
   38497    60.000000    78.157407     10   6302     17   23.23%      17      8
   39499    60.000000    78.009957     10   6370     22   23.09%      30      9
   40504    60.000000    78.000000     10   6460     28   23.08%      27      9
   41512    60.000000    77.520211     10   6433     25   22.60%      20      9
B&B tree size: 10MB total
 
    Node     BestSoln    BestBound   Sols Active  Depth     Gap     GInf   Time
   42550    60.000000    77.000000     10   6437     28   22.08%      11      9
   43558    60.000000    77.000000     10   6460     26   22.08%      15      9
   44559    60.000000    76.730159     10   6470     27   21.80%      23      9
   45565    60.000000    76.339669     10   6459     21   21.40%      20     10
   46565    60.000000    76.266667     10   6397     19   21.33%      18     10
   47570    60.000000    76.000000     10   6424     26   21.05%      22     10
   48575    60.000000    76.000000     10   6397     22   21.05%      32     10
   49591    60.000000    76.000000     10   6368     26   21.05%      31     11
   50593    60.000000    75.791667     10   6342     20   20.84%      28     11
   51615    60.000000    75.000000     10   6310     28   20.00%      19     11
   52633    60.000000    75.000000     10   6346     23   20.00%      26     11
   53655    60.000000    75.000000     10   6331     27   20.00%      21     11
   54673    60.000000    74.912281     10   6310     23   19.91%      18     11
   55682    60.000000    74.406433     10   6237     23   19.36%      14     12
   56698    60.000000    74.129386     10   6159     28   19.06%      21     12
   57698    60.000000    73.928571     10   6128     30   18.84%      16     12
   58699    60.000000    73.611111     10   6081     20   18.49%      27     12
   59703    60.000000    73.285880     10   5979     22   18.13%      17     12
   60727    60.000000    73.007075     10   5884     22   17.82%      14     13
   61736    60.000000    73.000000     10   5925     31   17.81%      11     13
B&B tree size: 11MB total
 
    Node     BestSoln    BestBound   Sols Active  Depth     Gap     GInf   Time
   62741    60.000000    73.000000     10   5878     21   17.81%      29     13
   63742    60.000000    72.574303     10   5788     29   17.33%      23     13
   64743    60.000000    72.399059     10   5706     24   17.13%      10     13
   65751    60.000000    72.125829     10   5567     22   16.81%      21     14
   66752    60.000000    72.000000     10   5429     23   16.67%      27     14
   67768    60.000000    72.000000     10   5331     26   16.67%      17     14
   68778    60.000000    71.277778     10   5194     24   15.82%      17     14
   69792    60.000000    71.001263     10   5070     19   15.49%      24     14
   70795    60.000000    70.900000     10   4965     26   15.37%      18     15
   71799    60.000000    70.474354     10   4819     22   14.86%      24     15
   72801    60.000000    70.065891     10   4622     21   14.37%      30     15
   73806    60.000000    70.000000     10   4576     23   14.29%      30     15
   74809    60.000000    70.000000     10   4460     27   14.29%      15     15
   75809    60.000000    69.451295     10   4277     17   13.61%      15     16
   76823    60.000000    69.000000     10   4073     27   13.04%      21     16
   77824    60.000000    69.000000     10   4006     27   13.04%      25     16
   78824    60.000000    68.677252     10   3766     25   12.63%      13     16
   79829    60.000000    68.000000     10   3463     26   11.76%      21     17
   80829    60.000000    67.577277     10   3203     18   11.21%      16     17
   81843    60.000000    67.000000     10   2899     25   10.45%      20     17
B&B tree size: 9.8MB total
 
    Node     BestSoln    BestBound   Sols Active  Depth     Gap     GInf   Time
   82844    60.000000    67.000000     10   2675     23   10.45%      20     17
   83851    60.000000    66.000000     10   2223     24    9.09%      12     17
   84851    60.000000    65.000000     10   1664     18    7.69%      28     18
   85851    60.000000    64.000000     10   1102     22    6.25%      13     18
   86851    60.000000    63.023666     10    583     25    4.80%      21     18
   87853    60.000000    61.000000     10     71     22    1.64%      22     18
 *** Search completed ***     Time:    18 Nodes:      88005
Number of integer feasible solutions found is 10
Best integer solution found is    60.000000
Best bound is    60.000000
Uncrunching matrix
